# Molecule definition
molecule {
Be  0.000   0.000   0.000
}

# basis-set specification
basis {
    e- CC-PVQZ
}

# scf options
scf {
    hf
    numeric
}

grid {
    e- [100, 110]
}

