# Molecule definition
molecule {
Li  0.000   0.000   0.000
}

# basis-set specification
basis {
    e- STO-3G
}

# scf options
scf {
    hf
}

code {
result = lambda x: print("PASS!") if abs(x) < 1e-5  else print("FAILED!")
ref_energy = -7.432702
diff_energy = ref_energy - Energy
result(diff_energy)    
}
