# Molecule definition
molecule {
Be  0.000   0.000   0.000
}

# basis-set specification
basis {
    e- STO-3G
}

# scf options
scf {
    hf
    numeric
}

grid {
    e- [50, 6]
}

code {
result = lambda x: print("PASS!") if abs(x) < 1e-4  else print("FAILED!")
ref_energy = -14.573066
diff_energy = ref_energy - Energy
result(diff_energy)    
}
