# Molecule definition
molecule {
H  0.000   0.000   0.000
}

# basis-set specification
basis {
    e- STO-3G
}

# scf options
scf {
    hf
    numeric
    aux_basis
    aux_basis_ldep = 1.0e-6
    aux_basis_lmax = 0
}

grid {
    e- [100, 14]
}

code {
result = lambda x: print("PASS!") if abs(x) < 1e-5  else print("FAILED!")
ref_energy = -0.5
diff_energy = ref_energy - Energy
result(diff_energy)    
}
