# Molecule definition
molecule {
Be  0.000   0.000   0.000
}

# basis-set specification
basis {
    e- CC-PVDZ
}

# scf options
scf {
    hf
}

