# Molecule definition
molecule {
    C  0.000   0.000   0.000
    O  0.000   0.000   1.188
    O  0.000   0.000   -1.188
}

# basis-set specification
basis {
    e- STO-3G
}

# scf options
scf {
    hf
    numeric
    nrad = 100
    nang = 110
}

