# Molecule definition:
# molecule [species name:charge:multiplicity]{}
# Charge is to add particles to the species, for instance,
# H- implies charge=1 because you are adding 1 e-

molecule {
#    O   0.000000      0.000000     -0.066575
    H   0.000000      0.754175      0.528381
    H_1   0.000000     -0.754174      0.528382
}

# basis-set specification
# You must express the basis-set for species. 
# If you have only one species you can declare the basis-set as,
# basis = STO-3G

basis {
    e- STO-3G
   H_1 DZSNB
}

# SCF engine options the keyword means True even though you can
# express if you want it False or True, for instance:
# direct = False 

scf {
    maxiter = 1000
    hf
    analytic
}

# You can add some operations in python syntax. 
# Here we compare the actual result "Energy" with the ref energy
# and plot some graphics:

code {
result = lambda x: print("PASS!") if abs(x) < 1e-7  else print("FAILED!")
ref_energy = -75.969794592884
diff_energy = ref_energy - Energy
result(diff_energy)
plt.matshow(D[0])
# plt.show()
plt.matshow(D[1])
# plt.show()
}
