# Molecule definition
molecule {
Li  0.000   0.000   0.000
}

# basis-set specification
basis {
    e- CC-PV5Z
}

# scf options
scf {
    hf
    #debug=True
}

