# Molecule definition
molecule {
    O  0.000   0.000   0.000
    H  0.000   0.752   -0.451
    H  0.000   -0.752  -0.451
}

# basis-set specification
basis {
    e- STO-3G
}

# scf options
scf {
    hf
    numeric
}

grid {
    e- [50, 110]
}

code {
result = lambda x: print("PASS!") if abs(x) < 1e-5  else print("FAILED!")
ref_energy = -100.0690743
diff_energy = ref_energy - Energy
print(diff_energy)
result(diff_energy)   
}